p edge 130 129
e 1 117
e 1 42
e 1 83
e 2 48
e 2 41
e 3 65
e 3 30
e 4 29
e 5 7
e 6 71
e 7 38
e 7 51
e 8 31
e 8 24
e 9 23
e 9 59
e 9 81
e 10 63
e 11 58
e 12 74
e 12 18
e 12 59
e 13 24
e 13 29
e 14 36
e 15 84
e 15 59
e 16 27
e 17 108
e 17 109
e 17 99
e 18 50
e 19 97
e 19 44
e 20 23
e 21 80
e 21 75
e 21 60
e 22 109
e 24 27
e 24 121
e 25 67
e 25 92
e 26 60
e 26 98
e 27 62
e 28 128
e 28 77
e 29 88
e 29 76
e 30 69
e 32 79
e 32 97
e 33 56
e 34 60
e 35 130
e 36 116
e 36 57
e 36 127
e 37 115
e 37 68
e 39 108
e 40 58
e 40 122
e 40 51
e 40 96
e 41 123
e 41 112
e 41 117
e 42 92
e 42 63
e 42 96
e 43 57
e 44 63
e 45 115
e 46 127
e 46 130
e 47 72
e 49 109
e 50 86
e 51 129
e 52 88
e 53 72
e 54 91
e 54 69
e 55 111
e 55 81
e 55 128
e 56 61
e 56 87
e 57 70
e 57 93
e 64 118
e 64 68
e 65 120
e 66 98
e 68 73
e 68 125
e 68 129
e 69 107
e 69 88
e 70 104
e 71 89
e 72 89
e 72 117
e 75 87
e 76 82
e 76 112
e 77 130
e 78 118
e 81 113
e 83 126
e 84 105
e 85 93
e 90 94
e 91 95
e 93 103
e 94 95
e 98 101
e 98 99
e 98 120
e 100 119
e 102 114
e 102 118
e 103 106
e 103 110
e 109 124
e 110 119
e 126 130
